distros/M/Math-LP-Solve/t/lp_examples/ex5.out
Value of objective function: 2331000
COL00100             937.3
COL00101             0
COL00102             312.2
COL00103             312.2
COL00104             0
COL00105             312.2
COL00106             312.2
COL00107             3533
COL00108             2567
COL00109             0
COL00110             800
COL00111             3544
COL00112             0
COL00113             0
COL00114             0
COL00115             312.2
COL00116             312.2
COL00117             711
COL00118             171.7
COL00119             711
COL00120             550.9
COL00121             0
COL00122             355.5
COL00123             355.5
COL00124             0
COL00125             355.5
COL00126             355.5
COL00127             3533
COL00128             2567
COL00129             0
COL00130             800
COL00131             4569
COL00132             0
COL00133             0
COL00134             355.5
COL00135             0
COL00136             355.5
COL00137             809.9
COL00138             0
COL00139             0
COL00140             0
COL00050             835.2
COL00051             1134
COL00052             0
COL00053             0
COL00054             0
COL00055             210.3
COL00056             210.3
COL00057             482
COL00058             112.9
COL00059             2365
COL00060             1200
COL00061             0
COL00062             241
COL00063             241
COL00064             0
COL00065             241
COL00066             241
COL00067             3439
COL00068             2567
COL00069             0
COL00070             894
COL00071             1857
COL00072             0
COL00073             0
COL00074             0
COL00075             241
COL00076             241
COL00077             547.8
COL00078             206.6
COL00079             1883
COL00080             1178
COL00081             0
COL00082             273.9
COL00083             273.9
COL00084             0
COL00085             273.9
COL00086             273.9
COL00087             3533
COL00088             2567
COL00089             0
COL00090             800
COL00091             2637
COL00092             0
COL00093             0
COL00094             0
COL00095             273.9
COL00096             273.9
COL00097             624.5
COL00098             236.1
COL00099             1335
COL00001             0
COL00002             158
COL00003             158
COL00004             0
COL00005             158
COL00006             158
COL00007             0
COL00008             2504
COL00009             1430
COL00010             1366
COL00011             0
COL00012             0
COL00013             1600
COL00014             0
COL00015             158
COL00016             158
COL00017             375.2
COL00018             14.7
COL00019             2400
COL00020             915.2
COL00021             0
COL00022             187.6
COL00023             187.6
COL00024             0
COL00025             187.6
COL00026             187.6
COL00027             2211
COL00028             2567
COL00029             312.7
COL00030             961.7
COL00031             586.5
COL00032             0
COL00033             848.1
COL00034             0
COL00035             187.6
COL00036             187.6
COL00037             420.6
COL00038             0
COL00039             2400
COL00040             1164
COL00041             0
COL00042             210.3
COL00043             210.3
COL00044             0
COL00045             210.3
COL00046             210.3
COL00047             3177
COL00048             2567
COL00049             321.6

Dual values:
r_1                  3261
r_2                  116.3
r_3                  -3321
r_4                  -176.9
r_5                  -6.167
r_6                  -0.47
r_7                  0
r_8                  -3374
r_9                  -229.7
r_10                 -40.6
r_11                 -5.225
r_12                 -6.37
r_13                 2546
r_14                 95.01
r_15                 -2610
r_16                 -159.3
r_17                 -15
r_18                 0
r_19                 0
r_20                 -2679
r_21                 -228.6
r_22                 -3421
r_23                 -43.6
r_24                 -5.617
r_25                 -6.84
r_26                 0
r_27                 1951
r_28                 92.07
r_29                 -2016
r_30                 -156.6
r_31                 -15
r_32                 0.47
r_33                 0
r_34                 -2086
r_35                 -227.1
r_36                 -2728
r_37                 -45.95
r_38                 -6.008
r_39                 -7.31
r_40                 0
r_41                 1399
r_42                 88.72
r_43                 -1464
r_44                 -153.6
r_45                 -15
r_46                 1.07
r_47                 0
r_48                 -1536
r_49                 -225.6
r_50                 -2136
r_51                 -48.95
r_52                 -6.398
r_53                 -7.91
r_54                 0
r_55                 991.5
r_56                 85.62
r_57                 -1057
r_58                 -150.7
r_59                 -15
r_60                 1.67
r_61                 -0.13
r_62                 -1130
r_63                 -224.2
r_64                 -1587
r_65                 -51.95
r_66                 -6.788
r_67                 -8.38
r_68                 0
r_69                 467.5
r_70                 82.53
r_71                 -532.9
r_72                 -147.9
r_73                 -15
r_74                 2.27
r_75                 -0.26
r_76                 -607.7
r_77                 -222.7
r_78                 -1183
r_79                 -54.95
r_80                 -7.178
r_81                 -8.85
r_82                 0
r_83                 358.2
r_84                 116.5
r_85                 -423.8
r_86                 -182.1
r_87                 -15
r_88                 2.87
r_89                 -0.39
r_90                 -500
r_91                 -258.3
r_92                 -662
r_93                 -57.95
r_94                 -7.568
r_95                 -9.32
r_96                 0
